p cnf 12 30
-5 3 10 0
1 -6 -5 0
-10 -4 1 0
-7 9 -11 0
-12 -12 -6 0
10 -1 9 0
6 -7 -7 0
4 2 5 0
-1 7 -7 0
-1 -2 -3 -4 -5 -6 -7 -8 -9 -10 -11 -12 0
-2 6 -2 0
-12 -10 1 0
1 2 3 4 5 6 7 8 9 10 11 12 0
10 7 7 0
-1 -6 -6 0
-11 -11 -12 0
-6 3 8 0
-1 -12 -5 0
-3 11 7 0
4 -4 7 0
1 -10 11 0
7 2 -10 0
-5 -9 3 0
-5 -10 1 0
-8 -8 11 0
-9 -6 -12 0
-11 3 -6 0
10 4 2 0
-6 7 3 0
-2 -1 2 0
